NAME: eilB76_20
COMMENT: 1037.93
VEHICLE: 14
TIME: 187.8413
DIMENSION: 76
CAPACITY: 100
DELIVERY_SECTION
0 0 0
1 1 10
2 1 5
3 1 1
4 1 1
5 1 1
6 2 20
7 2 5
8 2 1
9 3 10
10 3 1
11 4 20
12 4 10
13 5 20
14 5 1
15 6 10
16 6 5
17 6 1
18 6 1
19 6 1
20 6 1
21 7 10
22 7 5
23 8 10
24 8 5
25 8 1
26 9 20
27 9 5
28 9 1
29 9 1
30 9 1
31 9 1
32 10 20
33 10 5
34 10 1
35 11 20
36 11 10
37 11 5
38 11 1
39 11 1
40 12 10
41 12 5
42 12 1
43 13 10
44 13 1
45 13 1
46 14 20
47 14 10
48 14 1
49 15 5
50 15 1
51 15 1
52 15 1
53 16 10
54 16 5
55 16 1
56 16 1
57 16 1
58 16 1
59 17 20
60 18 10
61 18 1
62 18 1
63 18 1
64 19 10
65 19 5
66 20 20
67 20 1
68 20 1
69 21 20
70 21 5
71 21 1
72 21 1
73 21 1
74 22 10
75 22 1
76 22 1
77 23 5
78 23 1
79 24 20
80 24 5
81 24 1
82 24 1
83 25 10
84 25 1
85 25 1
86 25 1
87 25 1
88 26 10
89 26 5
90 26 1
91 26 1
92 26 1
93 27 10
94 27 5
95 27 1
96 27 1
97 28 20
98 28 5
99 28 1
100 28 1
101 28 1
102 28 1
103 29 10
104 29 1
105 29 1
106 29 1
107 30 20
108 30 1
109 30 1
110 31 20
111 31 5
112 32 20
113 32 5
114 32 1
115 32 1
116 32 1
117 33 20
118 33 5
119 33 1
120 33 1
121 34 10
122 34 5
123 34 1
124 34 1
125 34 1
126 34 1
127 35 10
128 36 10
129 36 1
130 36 1
131 37 10
132 37 1
133 37 1
134 37 1
135 37 1
136 38 20
137 38 1
138 38 1
139 38 1
140 38 1
141 39 10
142 39 5
143 39 1
144 40 20
145 40 10
146 40 1
147 40 1
148 40 1
149 41 10
150 41 5
151 42 10
152 42 1
153 43 10
154 43 5
155 43 1
156 43 1
157 43 1
158 44 10
159 44 5
160 44 1
161 44 1
162 45 20
163 45 1
164 46 20
165 46 5
166 46 1
167 46 1
168 47 10
169 47 5
170 47 1
171 47 1
172 47 1
173 47 1
174 48 20
175 49 5
176 50 20
177 50 1
178 50 1
179 51 10
180 51 1
181 51 1
182 52 10
183 52 5
184 52 1
185 52 1
186 52 1
187 52 1
188 53 20
189 53 1
190 53 1
191 54 10
192 54 5
193 54 1
194 55 5
195 55 1
196 55 1
197 56 20
198 56 5
199 56 1
200 57 10
201 57 1
202 57 1
203 57 1
204 57 1
205 58 20
206 58 1
207 59 20
208 59 1
209 59 1
210 59 1
211 59 1
212 60 10
213 60 1
214 60 1
215 60 1
216 61 10
217 61 5
218 62 10
219 62 5
220 62 1
221 62 1
222 62 1
223 63 10
224 63 1
225 64 20
226 64 5
227 64 1
228 64 1
229 64 1
230 65 5
231 65 1
232 65 1
233 65 1
234 65 1
235 66 20
236 66 10
237 66 5
238 66 1
239 66 1
240 67 20
241 67 10
242 68 10
243 69 5
244 69 1
245 69 1
246 69 1
247 70 10
248 70 1
249 71 1
250 71 1
251 71 1
252 72 1
253 73 5
254 73 1
255 74 10
256 75 20
PICKUP_SECTION
NODE_SECTION
40 40

22 22

36 26

21 45

45 35

55 20

33 34

50 50

55 45

26 59

40 66

55 65

35 51

62 35

62 57

62 24

21 36

33 44

 9 56

62 48

66 14

44 13

26 13

11 28

 7 43

17 64

41 46

55 34

35 16

52 26

43 26

31 76

22 53

26 29

50 40

55 50

54 10

60 15

47 66

30 60

30 50

12 17

15 14

16 19

21 48

50 30

51 42

50 15

48 21

12 38

15 56

29 39

54 38

55 57

67 41

10 70

 6 25

65 27

40 60

70 64

64  4

36  6

30 20

20 30

15  5

50 70

57 72

45 42

38 33

50  4

66  8

59  5

35 60

27 24

40 20

40 37
DISTANCE_SECTION
DEPOT_SECTION
0
EOF